100
128
6
22
6
7
64
24
31
20
30
64
11
17
26
1
18
57
45
60
6
4
50
37
10
29
30
39
36
11
19
18
24
60
13
12
31
29
54
10
44
22
15
17
38
64
49
61
12
26
19
45
55
29
18
15
21
46
23
22
14
26
1
28
15
12
38
3
12
1
2
56
52
28
11
64
34
2
16
60
1
10
29
18
41
24
24
1
3
57
1
14
2
19
13
13
14
39
12
1
63
1